c A SAT instance generated from a 3-CNF formula that had 18 clauses and 9 variables
p cnf 9 18
8 9 -4 0
-7 -6 -5 0
7 -8 3 0
3 9 1 0
1 -3 -6 0
-3 -7 1 0
-3 7 6 0
3 -9 6 0
-7 -4 -8 0
8 9 -6 0
9 6 1 0
-7 6 3 0
-9 -6 -1 0
6 -2 -9 0
5 9 2 0
2 -8 1 0
5 -7 -8 0
2 -7 4 0
